&NAME
Water simulation
&END NAME

&SYSTEM
CL_DRIVER=PSI4
&END SYSTEM

&GAUSSIAN
%nproc=12
%mem=6000MB
hk=test.chk
#P GFINPUT IOP(6/7=3)
#P rhf/3-21G scf(conventional) Iop(3/33=6) ExtraLinks=L316 NoRaff Symm=NoInt Iop(3/33=1) pop

water with ECP

0  1
O  0.000 0.000 0.000
H  0.757 0.586 0.000
H -0.757 0.586 0.000

O 0     
OLP 2 2     
D component 
3
1 80.0000000  -1.60000000
1 30.0000000  -0.40000000
2  1.0953760  -0.06623814
S-D projection 
3
0  0.9212952   0.39552179
0 28.6481971   2.51654843
2  9.3033500  17.04478500
P-D
2
2 52.3427019  27.97790770
2 30.7220233 -16.49630500

&END GAUSSIAN


&PSI4
import numpy as np
molecule mol {
   0 1
   H       .0000000000       0.0          0.0            
   H       .0000000000       0.0           .7414 
}
molecule molpy {
   0 1
   H       .0000000000       0.0          0.0            
   H       .0000000000       0.0           .2 
}
activate(molpy)
set {
  basis sto-3g
  reference uhf
  guess sad
  freeze_core false
  fail_on_maxiter true
  df_scf_guess false
  opdm true
  tpdm true
  soscf false
  scf_type pk
  maxiter 1e6
  num_amps_print 1e6
  r_convergence 1e-6
  d_convergence 1e-6
  e_convergence 1e-6
  ints_tolerance EQUALITY_TOLERANCE
  damping_percentage 0
}
hf_energy = energy('scf') # Mimic extra line user might have
&END PSI4

&PYQUANTE
dx = 0.735
mol = molecule([(1, .0, .0, -dx/2.0), (1, .0, .0, dx/2.0)], units='Angstrom')
&END PYQUANTE

%--------------------------------------------------------------------------------
% Additional section for the control of the quantum algorithm
%--------------------------------------------------------------------------------



&HAMILTONIAN				
MAX_NQUBITS=100
TYPE=FULL/PARTICLE-HOLE 
TRANSFORMATION_TO_SPIN=BRAVYI_KITAEV
CHEMICAL_POT=0
OPTIMIZATION=PARTICLE_NUMBER
&END HAMILTONIAN

&WAVEFUNCTION
TYPE=UCCSD
TROTTER=1
TAYLOR=0
ENTRANGLER=”NAME”
N_ENTAG=2
ACTIVE_SPACE=YES/NO
&END WAVEFUNCTION

&QUANTUM_CIRCUIT
OPTIMIZER=”NAME”
BACKEND=QX/”NAME”
&END QUANTUM_CIRCUIT

&QUANTUM_SIMULATION
SIMULATOR=”NAME”/NONE
&END QUANTUM_SIMULATION

&QUANTUM_OPTIMIZER
NAME_Q_OPTIMIZER=”VQE”
&END QUANTUM_OPTIMIZER

&CLASSICAL_OPTIMIZER
NAME_C_OPTIMIZER=”NAME”
MAX_STEPS=24
&END CLASSICAL_OPTIMIZER
