# Sample input file for QISChem chemistry stack
# Optional section for the user to describe this file's purpose
#
&NAME
H2 molecule experiment
&END

# External library DRIVER used for electronic structure computation.
# The DRIVER section is named here and that section should contains the
# molecule and any additional configuration needed such as basis set
# in order that a computation can be run with one and two electron
# integrals being extracted from the driver's result.
#
&DRIVER
  name=GAUSSIAN
&END

# -- Molecule and config in driver specific format
&GAUSSIAN
%nproc=12
%mem=6000MB
hk=test.chk
#P GFINPUT IOP(6/7=3)
#P rhf/3-21G scf(conventional) Iop(3/33=6) ExtraLinks=L316 NoRaff Symm=NoInt Iop(3/33=1) pop(full)

water with ECP

0  1
O  0.000 0.000 0.000
H  0.757 0.586 0.000
H -0.757 0.586 0.000

O 0
OLP 2 2
D component
3
1 80.0000000  -1.60000000
1 30.0000000  -0.40000000
2  1.0953760  -0.06623814
S-D projection
3
0  0.9212952   0.39552179
0 28.6481971   2.51654843
2  9.3033500  17.04478500
P-D
2
2 52.3427019  27.97790770
2 30.7220233 -16.49630500

&END

# Absolute bare minimum input file is just the driver info. With just
# this a default HAMILTONIAN and ALGORITHM will be used for the computation
# HAMILTONIAN and ALGORITHM may be given here to select a specific chosen
# configuration other than the default.
#
# At this point we have integral matrices which we are passed on down the
# chemistry stack to create the fermionic and qubit hamiltonians and run the energy
# computation using the algorithm which defaults to VQE.
&OPERATOR
 name=hamiltonian
 qubit_mapping=jordan_wigner
&END

# Algorithm is named here. Default is VQE.
#
# VQE has some parameters and an Optimizer and Variational form can be specifically
# defined in this input file to replace the default ones that would otherwise be used
#
&ALGORITHM
  name=VQE
  operator_mode=matrix
&END

# Below is specific configuration sections for algorithm e.g. OPTIMIZER and VARIATIONAL_FORM
# The specific entity to be used is NAMEd here
&OPTIMIZER
  name=L_BFGS_B
  factr=10
&END

&VARIATIONAL_FORM
  name=RYRZ
&END

# BACKEND specifies the particular quantum computing backend, whether real device
# or simulator that wll be used.
# The user also needs to have edited the qiskit Qconfig.py.default file from the
# qiskit root and placed there Qconfig.py with the right values, such as API_Token
# The BACKEND will default to the QISkit local simulator without this section
#
&BACKEND
  name=local_statevector_simulator
&END