# Sample input file for QISKit ACQUA Chemistry stack
# Optional section for the user to describe this file's purpose
#
&NAME
Water molecule experiment
&END

# External library DRIVER used for electronic structure computation.
# The DRIVER section is named here and that section should contains the
# molecule and any additional configuration needed such as basis set
# in order that a computation can be run with one and two electron
# integrals being extracted from the driver's result.
#
&DRIVER
  name=PSI4
&END

# Molecule and config in PSI4 specific format.
# Molecule and basis set config are mandatory. Further config
# to tailor the electronic structure may be supplied.
&PSI4
molecule h2o {
   0 1
   O  0.000 0.000 0.000
   H  0.757 0.586 0.000
   H -0.757 0.586 0.000
}

set {
  basis 3-21g
  scf_type pk
  freeze_core true
}
&END

# Absolute bare minimum input file is just the driver info. With just
# this a default HAMILTONIAN and ALGORITHM will be used for the computation
# HAMILTONIAN and ALGORITHM may be given here to select a specific chosen
# configuration other than the default.
#
# At this point we have integral matrices which we are passed on down the
# chemistry stack to create the fermionic and qubit hamiltonians and run the energy
# computation using the algorithm which defaults to VQE.
&OPERATOR
 name=hamiltonian
 qubit_mapping=jordan_wigner
&END

# Algorithm is named here. Default is VQE.
#
# VQE has some parameters and an Optimizer and Variational form can be specifically
# defined in this input file to replace the default ones that would otherwise be used
#
&ALGORITHM
  name=VQE
  operator_mode=matrix
&END

# Below is specific configuration sections for algorithm e.g. OPTIMIZER and VARIATIONAL_FORM
# The specific entity to be used is named here
&OPTIMIZER
  name=L_BFGS_B
  factr=10
&END

&VARIATIONAL_FORM
  name=RYRZ
&END

# BACKEND specifies the particular quantum computing backend, whether real device
# or simulator that wll be used.
# The user also needs to have edited the qiskit Qconfig.py.default file from the
# qiskit root and placed there Qconfig.py with the right values, such as API_Token
# The BACKEND will default to the QISkit local simulator without this section
#
&BACKEND
  name=local_statevector_simulator
&END
